NAME F-JSSP-SDST
ROWS
 N  OBJ
 E  c0      
 E  c1      
 E  c2      
 E  c3      
 E  c4      
 E  c5      
 L  c6      
 L  c7      
 L  c8      
 L  c9      
 L  c10     
 L  c11     
 L  c12     
 L  c13     
 L  c14     
 L  c15     
 G  c16     
 G  c17     
 G  c18     
 G  c19     
 G  c20     
 G  c21     
 G  c22     
 G  c23     
 G  c24     
 G  c25     
 G  c26     
 G  c27     
 G  c28     
 G  c29     
 G  c30     
 G  c31     
 G  c32     
 G  c33     
 G  c34     
 G  c35     
 G  c36     
 G  c37     
 G  c38     
 G  c39     
 G  c40     
 G  c41     
 G  c42     
 G  c43     
 G  c44     
 G  c45     
 G  c46     
 G  c47     
 G  c48     
 G  c49     
 G  c50     
 G  c51     
 G  c52     
 G  c53     
 G  c54     
 G  c55     
 G  c56     
 G  c57     
 G  c58     
 G  c59     
 G  c60     
 G  c61     
 G  c62     
 G  c63     
 G  c64     
 G  c65     
 G  c66     
 G  c67     
 G  c68     
 G  c69     
 G  c70     
 G  c71     
 G  c72     
 G  c73     
 G  c74     
 G  c75     
 G  c76     
 L  c77     
 G  c78     
 L  c79     
 G  c80     
 L  c81     
 G  c82     
 L  c83     
 G  c84     
 L  c85     
 G  c86     
COLUMNS
    MARKER    'MARKER'                 'INTORG'
    B0(9)     c0        1
    B0(9)     c6        -1000000000
    B0(9)     c16       -54
    B0(9)     c17       -1000000054
    B0(9)     c18       -54
    B0(9)     c28       -1000000000
    B0(9)     c29       -1000000000
    B0(9)     c32       -1000000000
    B0(9)     c33       -1000000000
    B1(13)    c0        1
    B1(13)    c7        -1000000000
    B1(13)    c16       -63
    B1(13)    c17       -63
    B1(13)    c18       -1000000063
    B1(13)    c24       -1000000000
    B1(13)    c25       -1000000000
    B1(13)    c26       -1000000000
    B1(13)    c27       -1000000000
    B1(13)    c30       -1000000000
    B1(13)    c31       -1000000000
    B1(13)    c34       -1000000000
    B1(13)    c35       -1000000000
    B2(9)     c1        1
    B2(9)     c8        -1000000000
    B2(9)     c17       -1000000000
    B2(9)     c40       -1000000000
    B2(9)     c41       -1000000000
    B2(9)     c44       -1000000000
    B2(9)     c45       -1000000000
    B2(9)     c76       87
    B2(9)     c77       87
    B3(13)    c1        1
    B3(13)    c9        -1000000000
    B3(13)    c18       -1000000000
    B3(13)    c36       -1000000000
    B3(13)    c37       -1000000000
    B3(13)    c38       -1000000000
    B3(13)    c39       -1000000000
    B3(13)    c42       -1000000000
    B3(13)    c43       -1000000000
    B3(13)    c46       -1000000000
    B3(13)    c47       -1000000000
    B3(13)    c78       95
    B3(13)    c79       95
    B4(13)    c2        1
    B4(13)    c10       -1000000000
    B4(13)    c19       -120
    B4(13)    c20       -1000000120
    B4(13)    c24       -1000000000
    B4(13)    c25       -1000000000
    B4(13)    c36       -1000000000
    B4(13)    c37       -1000000000
    B4(13)    c48       -1000000000
    B4(13)    c49       -1000000000
    B4(13)    c50       -1000000000
    B4(13)    c51       -1000000000
    B4(13)    c64       -11
    B5(14)    c3        1
    B5(14)    c11       -1000000000
    B5(14)    c20       -1000000000
    B5(14)    c26       -1000000000
    B5(14)    c27       -1000000000
    B5(14)    c38       -1000000000
    B5(14)    c39       -1000000000
    B5(14)    c52       -1000000000
    B5(14)    c53       -1000000000
    B5(14)    c54       -1000000000
    B5(14)    c55       -1000000000
    B5(14)    c66       -11
    B5(14)    c80       152
    B5(14)    c81       152
    B6(10)    c4        1
    B6(10)    c12       -1000000000
    B6(10)    c21       -125
    B6(10)    c22       -1000000125
    B6(10)    c23       -125
    B6(10)    c28       -1000000000
    B6(10)    c29       -1000000000
    B6(10)    c40       -1000000000
    B6(10)    c41       -1000000000
    B6(10)    c68       -10
    B7(14)    c4        1
    B7(14)    c13       -1000000000
    B7(14)    c21       -135
    B7(14)    c22       -135
    B7(14)    c23       -1000000135
    B7(14)    c30       -1000000000
    B7(14)    c31       -1000000000
    B7(14)    c42       -1000000000
    B7(14)    c43       -1000000000
    B7(14)    c48       -1000000000
    B7(14)    c49       -1000000000
    B7(14)    c52       -1000000000
    B7(14)    c53       -1000000000
    B7(14)    c70       -10
    B8(10)    c5        1
    B8(10)    c14       -1000000000
    B8(10)    c22       -1000000000
    B8(10)    c32       -1000000000
    B8(10)    c33       -1000000000
    B8(10)    c44       -1000000000
    B8(10)    c45       -1000000000
    B8(10)    c72       -10
    B8(10)    c82       143
    B8(10)    c83       143
    B9(14)    c5        1
    B9(14)    c15       -1000000000
    B9(14)    c23       -1000000000
    B9(14)    c34       -1000000000
    B9(14)    c35       -1000000000
    B9(14)    c46       -1000000000
    B9(14)    c47       -1000000000
    B9(14)    c50       -1000000000
    B9(14)    c51       -1000000000
    B9(14)    c54       -1000000000
    B9(14)    c55       -1000000000
    B9(14)    c74       -10
    B9(14)    c84       124
    B9(14)    c85       124
    B10(0)    OBJ       0
    B11(0)    OBJ       0
    B12(2)    c24       -1000000000
    B12(2)    c25       1000000000
    B13(2)    c26       -1000000000
    B13(2)    c27       1000000000
    B14(4)    c28       -1000000000
    B14(4)    c29       1000000000
    B14(4)    c30       -1000000000
    B14(4)    c31       1000000000
    B15(4)    c32       -1000000000
    B15(4)    c33       1000000000
    B15(4)    c34       -1000000000
    B15(4)    c35       1000000000
    B16(0)    OBJ       0
    B17(0)    OBJ       0
    B18(2)    c36       -1000000000
    B18(2)    c37       1000000000
    B19(2)    c38       -1000000000
    B19(2)    c39       1000000000
    B20(4)    c40       -1000000000
    B20(4)    c41       1000000000
    B20(4)    c42       -1000000000
    B20(4)    c43       1000000000
    B21(4)    c44       -1000000000
    B21(4)    c45       1000000000
    B21(4)    c46       -1000000000
    B21(4)    c47       1000000000
    B22(0)    OBJ       0
    B23(0)    OBJ       0
    B24(0)    OBJ       0
    B25(0)    OBJ       0
    B26(2)    c48       -1000000000
    B26(2)    c49       1000000000
    B27(2)    c50       -1000000000
    B27(2)    c51       1000000000
    B28(0)    OBJ       0
    B29(0)    OBJ       0
    B30(0)    OBJ       0
    B31(0)    OBJ       0
    B32(2)    c52       -1000000000
    B32(2)    c53       1000000000
    B33(2)    c54       -1000000000
    B33(2)    c55       1000000000
    B34(0)    OBJ       0
    B35(0)    OBJ       0
    B36(0)    OBJ       0
    B37(0)    OBJ       0
    B38(0)    OBJ       0
    B39(0)    OBJ       0
    B40(0)    OBJ       0
    B41(0)    OBJ       0
    B42(0)    OBJ       0
    B43(0)    OBJ       0
    B44(0)    OBJ       0
    B45(0)    OBJ       0
    I46(10)   c6        1
    I46(10)   c16       -1
    I46(10)   c17       -1
    I46(10)   c18       -1
    I46(10)   c28       1
    I46(10)   c29       -1
    I46(10)   c32       1
    I46(10)   c33       -1
    I46(10)   c56       1
    I46(10)   c57       1
    I47(14)   c7        1
    I47(14)   c16       -1
    I47(14)   c17       -1
    I47(14)   c18       -1
    I47(14)   c24       1
    I47(14)   c25       -1
    I47(14)   c26       1
    I47(14)   c27       -1
    I47(14)   c30       1
    I47(14)   c31       -1
    I47(14)   c34       1
    I47(14)   c35       -1
    I47(14)   c58       1
    I47(14)   c59       1
    I48(13)   c8        1
    I48(13)   c16       1
    I48(13)   c17       1
    I48(13)   c18       1
    I48(13)   c40       1
    I48(13)   c41       -1
    I48(13)   c44       1
    I48(13)   c45       -1
    I48(13)   c60       1
    I48(13)   c61       1
    I48(13)   c76       1
    I48(13)   c77       1
    I48(13)   c86       -1
    I49(17)   c9        1
    I49(17)   c16       1
    I49(17)   c17       1
    I49(17)   c18       1
    I49(17)   c36       1
    I49(17)   c37       -1
    I49(17)   c38       1
    I49(17)   c39       -1
    I49(17)   c42       1
    I49(17)   c43       -1
    I49(17)   c46       1
    I49(17)   c47       -1
    I49(17)   c62       1
    I49(17)   c63       1
    I49(17)   c78       1
    I49(17)   c79       1
    I49(17)   c86       -1
    I50(13)   c10       1
    I50(13)   c19       -1
    I50(13)   c20       -1
    I50(13)   c24       -1
    I50(13)   c25       1
    I50(13)   c36       -1
    I50(13)   c37       1
    I50(13)   c48       1
    I50(13)   c49       -1
    I50(13)   c50       1
    I50(13)   c51       -1
    I50(13)   c64       1
    I50(13)   c65       1
    I51(16)   c11       1
    I51(16)   c19       1
    I51(16)   c20       1
    I51(16)   c26       -1
    I51(16)   c27       1
    I51(16)   c38       -1
    I51(16)   c39       1
    I51(16)   c52       1
    I51(16)   c53       -1
    I51(16)   c54       1
    I51(16)   c55       -1
    I51(16)   c66       1
    I51(16)   c67       1
    I51(16)   c80       1
    I51(16)   c81       1
    I51(16)   c86       -1
    I52(10)   c12       1
    I52(10)   c21       -1
    I52(10)   c22       -1
    I52(10)   c23       -1
    I52(10)   c28       -1
    I52(10)   c29       1
    I52(10)   c40       -1
    I52(10)   c41       1
    I52(10)   c68       1
    I52(10)   c69       1
    I53(14)   c13       1
    I53(14)   c21       -1
    I53(14)   c22       -1
    I53(14)   c23       -1
    I53(14)   c30       -1
    I53(14)   c31       1
    I53(14)   c42       -1
    I53(14)   c43       1
    I53(14)   c48       -1
    I53(14)   c49       1
    I53(14)   c52       -1
    I53(14)   c53       1
    I53(14)   c70       1
    I53(14)   c71       1
    I54(13)   c14       1
    I54(13)   c21       1
    I54(13)   c22       1
    I54(13)   c23       1
    I54(13)   c32       -1
    I54(13)   c33       1
    I54(13)   c44       -1
    I54(13)   c45       1
    I54(13)   c72       1
    I54(13)   c73       1
    I54(13)   c82       1
    I54(13)   c83       1
    I54(13)   c86       -1
    I55(17)   c15       1
    I55(17)   c21       1
    I55(17)   c22       1
    I55(17)   c23       1
    I55(17)   c34       -1
    I55(17)   c35       1
    I55(17)   c46       -1
    I55(17)   c47       1
    I55(17)   c50       -1
    I55(17)   c51       1
    I55(17)   c54       -1
    I55(17)   c55       1
    I55(17)   c74       1
    I55(17)   c75       1
    I55(17)   c84       1
    I55(17)   c85       1
    I55(17)   c86       -1
    I56(1)    OBJ       1
    I56(1)    c86       1
    B57(0)    OBJ       0
    B58(0)    OBJ       0
    B59(3)    c76       -1000000000
    B59(3)    c77       -1000000000
    B59(3)    c86       5
    B60(3)    c78       -1000000000
    B60(3)    c79       -1000000000
    B60(3)    c86       -3
    B61(0)    OBJ       0
    B62(3)    c80       -1000000000
    B62(3)    c81       -1000000000
    B62(3)    c86       -69
    B63(0)    OBJ       0
    B64(0)    OBJ       0
    B65(3)    c82       -1000000000
    B65(3)    c83       -1000000000
    B65(3)    c86       -97
    B66(3)    c84       -1000000000
    B66(3)    c85       -1000000000
    B66(3)    c86       -78
    MARKER    'MARKER'                 'INTEND'
RHS
    RHS1      c0        1
    RHS1      c1        1
    RHS1      c2        1
    RHS1      c3        1
    RHS1      c4        1
    RHS1      c5        1
    RHS1      c17       -1999999991
    RHS1      c18       -1999999989
    RHS1      c20       -1999999989
    RHS1      c22       -1999999991
    RHS1      c23       -1999999990
    RHS1      c24       -2999999871
    RHS1      c25       -1999999929
    RHS1      c26       -2999999840
    RHS1      c27       -1999999926
    RHS1      c28       -2999999865
    RHS1      c29       -1999999935
    RHS1      c30       -2999999854
    RHS1      c31       -1999999925
    RHS1      c32       -2999999846
    RHS1      c33       -1999999934
    RHS1      c34       -2999999865
    RHS1      c35       -1999999928
    RHS1      c36       -2999999869
    RHS1      c37       -1999999895
    RHS1      c38       -2999999836
    RHS1      c39       -1999999894
    RHS1      c40       -2999999864
    RHS1      c41       -1999999902
    RHS1      c42       -2999999855
    RHS1      c43       -1999999894
    RHS1      c44       -2999999847
    RHS1      c45       -1999999904
    RHS1      c46       -2999999868
    RHS1      c47       -1999999893
    RHS1      c48       -2999999855
    RHS1      c49       -1999999869
    RHS1      c50       -2999999866
    RHS1      c51       -1999999870
    RHS1      c52       -2999999854
    RHS1      c53       -1999999838
    RHS1      c54       -2999999866
    RHS1      c55       -1999999836
    RHS1      c76       -999999908
    RHS1      c77       92
    RHS1      c78       -999999908
    RHS1      c79       92
    RHS1      c80       -999999917
    RHS1      c81       83
    RHS1      c82       -999999954
    RHS1      c83       46
    RHS1      c84       -999999954
    RHS1      c85       46
BOUNDS
 BV BND1      B0(9)   
 BV BND1      B1(13)  
 BV BND1      B2(9)   
 BV BND1      B3(13)  
 BV BND1      B4(13)  
 BV BND1      B5(14)  
 BV BND1      B6(10)  
 BV BND1      B7(14)  
 BV BND1      B8(10)  
 BV BND1      B9(14)  
 BV BND1      B10(0)  
 BV BND1      B11(0)  
 BV BND1      B12(2)  
 BV BND1      B13(2)  
 BV BND1      B14(4)  
 BV BND1      B15(4)  
 BV BND1      B16(0)  
 BV BND1      B17(0)  
 BV BND1      B18(2)  
 BV BND1      B19(2)  
 BV BND1      B20(4)  
 BV BND1      B21(4)  
 BV BND1      B22(0)  
 BV BND1      B23(0)  
 BV BND1      B24(0)  
 BV BND1      B25(0)  
 BV BND1      B26(2)  
 BV BND1      B27(2)  
 BV BND1      B28(0)  
 BV BND1      B29(0)  
 BV BND1      B30(0)  
 BV BND1      B31(0)  
 BV BND1      B32(2)  
 BV BND1      B33(2)  
 BV BND1      B34(0)  
 BV BND1      B35(0)  
 BV BND1      B36(0)  
 BV BND1      B37(0)  
 BV BND1      B38(0)  
 BV BND1      B39(0)  
 BV BND1      B40(0)  
 BV BND1      B41(0)  
 BV BND1      B42(0)  
 BV BND1      B43(0)  
 BV BND1      B44(0)  
 BV BND1      B45(0)  
 LI BND1      I46(10)   0
 LI BND1      I47(14)   0
 LI BND1      I48(13)   0
 LI BND1      I49(17)   0
 LI BND1      I50(13)   0
 LI BND1      I51(16)   0
 LI BND1      I52(10)   0
 LI BND1      I53(14)   0
 LI BND1      I54(13)   0
 LI BND1      I55(17)   0
 LI BND1      I56(1)    0
 BV BND1      B57(0)  
 BV BND1      B58(0)  
 BV BND1      B59(3)  
 BV BND1      B60(3)  
 BV BND1      B61(0)  
 BV BND1      B62(3)  
 BV BND1      B63(0)  
 BV BND1      B64(0)  
 BV BND1      B65(3)  
 BV BND1      B66(3)  
ENDATA
